NAME: cuum920.tsp
TYPE: TSP
COMMENT: User-generated TSP file
DIMENSION: 920
EDGE_WEIGHT_TYPE: EUC_2D
NODE_COORD_SECTION
1 86.0 303.0
2 255.0 505.0
3 99.0 369.0
4 628.0 363.0
5 539.0 38.0
6 161.0 184.0
7 93.0 718.0
8 821.0 154.0
9 622.0 409.0
10 34.0 137.0
11 691.0 410.0
12 279.0 572.0
13 391.0 103.0
14 587.0 240.0
15 228.0 106.0
16 401.0 815.0
17 128.0 853.0
18 358.0 446.0
19 907.0 109.0
20 465.0 801.0
21 296.0 50.0
22 849.0 26.0
23 709.0 366.0
24 618.0 521.0
25 506.0 270.0
26 581.0 618.0
27 417.0 687.0
28 599.0 38.0
29 498.0 140.0
30 176.0 266.0
31 138.0 892.0
32 96.0 834.0
33 283.0 917.0
34 172.0 809.0
35 305.0 502.0
36 222.0 187.0
37 617.0 125.0
38 336.0 196.0
39 413.0 437.0
40 915.0 497.0
41 651.0 122.0
42 898.0 211.0
43 99.0 748.0
44 218.0 258.0
45 531.0 664.0
46 574.0 436.0
47 548.0 81.0
48 530.0 491.0
49 900.0 604.0
50 435.0 597.0
51 613.0 40.0
52 442.0 407.0
53 48.0 330.0
54 515.0 892.0
55 426.0 625.0
56 369.0 465.0
57 870.0 540.0
58 814.0 898.0
59 640.0 902.0
60 78.0 42.0
61 89.0 852.0
62 242.0 879.0
63 728.0 120.0
64 538.0 113.0
65 157.0 779.0
66 52.0 591.0
67 803.0 744.0
68 605.0 903.0
69 26.0 24.0
70 328.0 302.0
71 96.0 898.0
72 915.0 289.0
73 338.0 253.0
74 702.0 43.0
75 675.0 910.0
76 862.0 385.0
77 362.0 244.0
78 109.0 576.0
79 487.0 192.0
80 715.0 345.0
81 599.0 839.0
82 390.0 59.0
83 918.0 186.0
84 96.0 335.0
85 166.0 264.0
86 154.0 861.0
87 201.0 735.0
88 31.0 450.0
89 745.0 506.0
90 513.0 532.0
91 713.0 55.0
92 339.0 528.0
93 830.0 740.0
94 212.0 274.0
95 10.0 273.0
96 554.0 629.0
97 302.0 255.0
98 708.0 868.0
99 560.0 27.0
100 741.0 915.0
101 576.0 324.0
102 103.0 863.0
103 195.0 335.0
104 369.0 223.0
105 80.0 770.0
106 504.0 822.0
107 24.0 129.0
108 318.0 443.0
109 589.0 772.0
110 556.0 384.0
111 672.0 894.0
112 326.0 336.0
113 481.0 26.0
114 860.0 842.0
115 409.0 180.0
116 252.0 889.0
117 676.0 691.0
118 66.0 102.0
119 389.0 200.0
120 375.0 220.0
121 566.0 908.0
122 382.0 135.0
123 318.0 671.0
124 750.0 8.0
125 852.0 563.0
126 675.0 91.0
127 578.0 154.0
128 696.0 558.0
129 429.0 132.0
130 263.0 31.0
131 108.0 122.0
132 689.0 680.0
133 830.0 540.0
134 304.0 759.0
135 450.0 585.0
136 190.0 118.0
137 127.0 570.0
138 404.0 338.0
139 170.0 156.0
140 288.0 827.0
141 905.0 821.0
142 305.0 129.0
143 590.0 152.0
144 44.0 440.0
145 851.0 899.0
146 399.0 624.0
147 589.0 884.0
148 155.0 713.0
149 796.0 634.0
150 176.0 360.0
151 388.0 909.0
152 328.0 851.0
153 146.0 413.0
154 909.0 385.0
155 426.0 525.0
156 691.0 579.0
157 834.0 596.0
158 877.0 180.0
159 341.0 480.0
160 96.0 690.0
161 429.0 5.0
162 76.0 729.0
163 503.0 296.0
164 514.0 73.0
165 241.0 29.0
166 888.0 213.0
167 910.0 104.0
168 514.0 906.0
169 701.0 777.0
170 587.0 794.0
171 497.0 143.0
172 116.0 562.0
173 322.0 483.0
174 216.0 202.0
175 420.0 295.0
176 743.0 822.0
177 839.0 289.0
178 63.0 99.0
179 696.0 206.0
180 911.0 256.0
181 746.0 252.0
182 331.0 397.0
183 295.0 598.0
184 919.0 98.0
185 237.0 845.0
186 768.0 726.0
187 379.0 789.0
188 439.0 123.0
189 565.0 195.0
190 868.0 613.0
191 364.0 604.0
192 88.0 328.0
193 559.0 317.0
194 842.0 261.0
195 578.0 436.0
196 724.0 189.0
197 789.0 663.0
198 291.0 675.0
199 366.0 851.0
200 786.0 463.0
201 39.0 799.0
202 458.0 409.0
203 479.0 611.0
204 630.0 458.0
205 723.0 594.0
206 323.0 279.0
207 453.0 309.0
208 280.0 316.0
209 383.0 91.0
210 785.0 417.0
211 814.0 592.0
212 732.0 710.0
213 708.0 146.0
214 460.0 490.0
215 87.0 392.0
216 562.0 391.0
217 109.0 207.0
218 423.0 353.0
219 755.0 787.0
220 523.0 10.0
221 33.0 850.0
222 752.0 86.0
223 226.0 537.0
224 47.0 482.0
225 680.0 869.0
226 168.0 855.0
227 840.0 670.0
228 338.0 209.0
229 805.0 534.0
230 464.0 580.0
231 638.0 548.0
232 344.0 443.0
233 454.0 387.0
234 26.0 580.0
235 550.0 629.0
236 259.0 875.0
237 516.0 743.0
238 470.0 784.0
239 858.0 669.0
240 757.0 587.0
241 776.0 68.0
242 845.0 14.0
243 428.0 70.0
244 756.0 434.0
245 318.0 671.0
246 751.0 858.0
247 68.0 598.0
248 66.0 625.0
249 345.0 105.0
250 766.0 247.0
251 802.0 50.0
252 353.0 288.0
253 898.0 374.0
254 544.0 422.0
255 423.0 416.0
256 469.0 127.0
257 500.0 899.0
258 340.0 221.0
259 366.0 836.0
260 400.0 918.0
261 698.0 205.0
262 459.0 422.0
263 819.0 242.0
264 619.0 124.0
265 831.0 428.0
266 18.0 206.0
267 193.0 914.0
268 355.0 911.0
269 889.0 341.0
270 97.0 719.0
271 307.0 372.0
272 908.0 713.0
273 66.0 823.0
274 906.0 724.0
275 206.0 482.0
276 130.0 703.0
277 329.0 413.0
278 611.0 268.0
279 827.0 298.0
280 60.0 910.0
281 433.0 796.0
282 475.0 538.0
283 518.0 901.0
284 276.0 711.0
285 902.0 702.0
286 874.0 131.0
287 581.0 847.0
288 241.0 533.0
289 513.0 15.0
290 726.0 72.0
291 500.0 710.0
292 570.0 492.0
293 74.0 100.0
294 315.0 334.0
295 734.0 613.0
296 402.0 18.0
297 195.0 482.0
298 890.0 773.0
299 738.0 491.0
300 426.0 551.0
301 234.0 4.0
302 352.0 337.0
303 723.0 599.0
304 283.0 659.0
305 240.0 105.0
306 334.0 715.0
307 77.0 548.0
308 564.0 839.0
309 895.0 816.0
310 860.0 300.0
311 159.0 564.0
312 364.0 332.0
313 619.0 834.0
314 617.0 586.0
315 651.0 329.0
316 34.0 125.0
317 298.0 234.0
318 905.0 260.0
319 118.0 552.0
320 316.0 566.0
321 572.0 286.0
322 267.0 151.0
323 775.0 658.0
324 854.0 700.0
325 454.0 810.0
326 572.0 601.0
327 853.0 451.0
328 280.0 884.0
329 142.0 579.0
330 398.0 872.0
331 881.0 355.0
332 833.0 419.0
333 143.0 157.0
334 538.0 436.0
335 890.0 479.0
336 131.0 615.0
337 274.0 396.0
338 824.0 504.0
339 551.0 185.0
340 582.0 902.0
341 901.0 233.0
342 297.0 155.0
343 730.0 74.0
344 255.0 809.0
345 508.0 360.0
346 865.0 257.0
347 153.0 896.0
348 232.0 876.0
349 382.0 504.0
350 452.0 71.0
351 234.0 758.0
352 684.0 651.0
353 289.0 312.0
354 468.0 772.0
355 910.0 656.0
356 615.0 94.0
357 539.0 630.0
358 93.0 442.0
359 375.0 508.0
360 542.0 743.0
361 887.0 18.0
362 360.0 479.0
363 839.0 694.0
364 822.0 652.0
365 813.0 821.0
366 420.0 235.0
367 884.0 222.0
368 29.0 362.0
369 477.0 895.0
370 852.0 117.0
371 692.0 800.0
372 419.0 634.0
373 733.0 497.0
374 816.0 348.0
375 359.0 613.0
376 247.0 132.0
377 57.0 512.0
378 274.0 362.0
379 591.0 174.0
380 99.0 854.0
381 888.0 636.0
382 742.0 197.0
383 62.0 381.0
384 885.0 705.0
385 630.0 395.0
386 163.0 832.0
387 392.0 477.0
388 820.0 164.0
389 332.0 285.0
390 227.0 272.0
391 88.0 821.0
392 672.0 254.0
393 258.0 719.0
394 873.0 71.0
395 462.0 8.0
396 582.0 330.0
397 287.0 157.0
398 44.0 217.0
399 68.0 388.0
400 710.0 444.0
401 651.0 370.0
402 854.0 267.0
403 241.0 862.0
404 349.0 615.0
405 626.0 309.0
406 437.0 684.0
407 547.0 447.0
408 885.0 20.0
409 93.0 406.0
410 725.0 115.0
411 258.0 671.0
412 95.0 860.0
413 434.0 796.0
414 521.0 72.0
415 101.0 265.0
416 802.0 795.0
417 62.0 445.0
418 630.0 798.0
419 261.0 607.0
420 61.0 860.0
421 42.0 866.0
422 161.0 446.0
423 882.0 105.0
424 484.0 750.0
425 721.0 137.0
426 516.0 648.0
427 510.0 106.0
428 408.0 84.0
429 362.0 184.0
430 427.0 147.0
431 19.0 786.0
432 168.0 759.0
433 519.0 224.0
434 771.0 665.0
435 391.0 216.0
436 149.0 826.0
437 544.0 735.0
438 711.0 704.0
439 711.0 473.0
440 590.0 413.0
441 739.0 172.0
442 84.0 295.0
443 148.0 187.0
444 293.0 214.0
445 512.0 553.0
446 337.0 191.0
447 589.0 415.0
448 121.0 425.0
449 494.0 352.0
450 840.0 906.0
451 596.0 414.0
452 216.0 869.0
453 408.0 202.0
454 681.0 26.0
455 521.0 271.0
456 165.0 125.0
457 255.0 883.0
458 325.0 333.0
459 209.0 459.0
460 438.0 681.0
461 190.0 549.0
462 791.0 631.0
463 319.0 606.0
464 297.0 633.0
465 330.0 886.0
466 443.0 449.0
467 864.0 30.0
468 804.0 531.0
469 763.0 139.0
470 40.0 723.0
471 441.0 71.0
472 609.0 912.0
473 724.0 901.0
474 162.0 764.0
475 123.0 496.0
476 526.0 782.0
477 229.0 132.0
478 165.0 235.0
479 381.0 300.0
480 860.0 913.0
481 619.0 694.0
482 517.0 821.0
483 270.0 7.0
484 793.0 8.0
485 801.0 748.0
486 818.0 901.0
487 360.0 801.0
488 479.0 363.0
489 240.0 596.0
490 563.0 880.0
491 440.0 213.0
492 449.0 647.0
493 860.0 846.0
494 609.0 215.0
495 799.0 666.0
496 917.0 729.0
497 511.0 308.0
498 539.0 734.0
499 590.0 740.0
500 572.0 352.0
501 240.0 586.0
502 135.0 888.0
503 246.0 63.0
504 518.0 756.0
505 317.0 506.0
506 105.0 676.0
507 299.0 222.0
508 726.0 716.0
509 680.0 441.0
510 627.0 158.0
511 815.0 130.0
512 790.0 678.0
513 692.0 681.0
514 754.0 181.0
515 365.0 440.0
516 857.0 811.0
517 551.0 892.0
518 885.0 688.0
519 269.0 184.0
520 476.0 357.0
521 660.0 504.0
522 664.0 301.0
523 127.0 247.0
524 731.0 544.0
525 180.0 1.0
526 770.0 527.0
527 450.0 393.0
528 693.0 163.0
529 549.0 127.0
530 213.0 49.0
531 759.0 73.0
532 694.0 675.0
533 791.0 838.0
534 672.0 607.0
535 426.0 542.0
536 185.0 881.0
537 163.0 195.0
538 392.0 302.0
539 417.0 737.0
540 747.0 663.0
541 320.0 314.0
542 117.0 331.0
543 77.0 10.0
544 431.0 623.0
545 811.0 821.0
546 264.0 113.0
547 848.0 378.0
548 774.0 876.0
549 308.0 647.0
550 644.0 313.0
551 390.0 420.0
552 784.0 86.0
553 485.0 546.0
554 222.0 559.0
555 176.0 171.0
556 721.0 647.0
557 435.0 475.0
558 365.0 515.0
559 792.0 582.0
560 836.0 869.0
561 375.0 649.0
562 329.0 179.0
563 779.0 820.0
564 656.0 753.0
565 277.0 308.0
566 393.0 709.0
567 584.0 107.0
568 255.0 18.0
569 326.0 450.0
570 179.0 837.0
571 146.0 638.0
572 230.0 312.0
573 340.0 75.0
574 276.0 266.0
575 108.0 876.0
576 825.0 210.0
577 307.0 850.0
578 812.0 842.0
579 635.0 152.0
580 419.0 239.0
581 858.0 427.0
582 25.0 835.0
583 727.0 489.0
584 548.0 166.0
585 30.0 364.0
586 459.0 747.0
587 371.0 335.0
588 303.0 183.0
589 561.0 289.0
590 615.0 85.0
591 522.0 647.0
592 290.0 440.0
593 431.0 881.0
594 573.0 108.0
595 598.0 554.0
596 672.0 748.0
597 73.0 843.0
598 328.0 775.0
599 34.0 729.0
600 350.0 500.0
601 263.0 618.0
602 238.0 750.0
603 756.0 614.0
604 440.0 551.0
605 368.0 753.0
606 888.0 482.0
607 178.0 754.0
608 493.0 526.0
609 663.0 593.0
610 302.0 665.0
611 594.0 603.0
612 616.0 670.0
613 210.0 795.0
614 45.0 270.0
615 59.0 177.0
616 43.0 488.0
617 790.0 554.0
618 764.0 422.0
619 802.0 368.0
620 283.0 454.0
621 295.0 635.0
622 590.0 651.0
623 121.0 826.0
624 234.0 123.0
625 774.0 742.0
626 530.0 711.0
627 800.0 285.0
628 324.0 70.0
629 919.0 119.0
630 304.0 318.0
631 697.0 287.0
632 343.0 609.0
633 756.0 314.0
634 324.0 390.0
635 599.0 120.0
636 790.0 614.0
637 276.0 183.0
638 388.0 430.0
639 774.0 506.0
640 13.0 554.0
641 422.0 142.0
642 734.0 97.0
643 750.0 378.0
644 853.0 286.0
645 264.0 589.0
646 471.0 682.0
647 852.0 402.0
648 582.0 139.0
649 887.0 671.0
650 124.0 20.0
651 482.0 687.0
652 791.0 748.0
653 491.0 814.0
654 201.0 95.0
655 893.0 275.0
656 633.0 787.0
657 120.0 426.0
658 334.0 488.0
659 606.0 623.0
660 103.0 884.0
661 115.0 698.0
662 512.0 206.0
663 250.0 51.0
664 116.0 561.0
665 135.0 480.0
666 784.0 674.0
667 109.0 229.0
668 532.0 522.0
669 233.0 761.0
670 102.0 881.0
671 365.0 303.0
672 381.0 731.0
673 21.0 587.0
674 613.0 905.0
675 444.0 371.0
676 604.0 194.0
677 145.0 570.0
678 411.0 736.0
679 34.0 471.0
680 722.0 283.0
681 735.0 814.0
682 302.0 49.0
683 55.0 185.0
684 263.0 129.0
685 147.0 147.0
686 382.0 532.0
687 325.0 323.0
688 225.0 507.0
689 798.0 308.0
690 300.0 32.0
691 158.0 599.0
692 278.0 558.0
693 617.0 626.0
694 640.0 285.0
695 468.0 840.0
696 829.0 449.0
697 578.0 263.0
698 900.0 459.0
699 712.0 882.0
700 900.0 894.0
701 502.0 305.0
702 305.0 801.0
703 712.0 168.0
704 197.0 415.0
705 419.0 619.0
706 200.0 638.0
707 157.0 209.0
708 361.0 817.0
709 633.0 579.0
710 146.0 354.0
711 233.0 536.0
712 793.0 272.0
713 170.0 339.0
714 515.0 240.0
715 150.0 422.0
716 51.0 328.0
717 140.0 686.0
718 915.0 258.0
719 768.0 744.0
720 11.0 584.0
721 183.0 893.0
722 73.0 237.0
723 251.0 298.0
724 148.0 438.0
725 893.0 342.0
726 512.0 324.0
727 901.0 861.0
728 51.0 808.0
729 24.0 470.0
730 581.0 833.0
731 268.0 742.0
732 747.0 155.0
733 533.0 860.0
734 904.0 583.0
735 31.0 659.0
736 758.0 726.0
737 486.0 27.0
738 676.0 40.0
739 718.0 737.0
740 790.0 896.0
741 790.0 788.0
742 520.0 118.0
743 164.0 705.0
744 240.0 606.0
745 889.0 629.0
746 88.0 347.0
747 73.0 854.0
748 194.0 829.0
749 383.0 422.0
750 137.0 766.0
751 906.0 149.0
752 701.0 217.0
753 665.0 872.0
754 339.0 101.0
755 286.0 162.0
756 588.0 425.0
757 573.0 184.0
758 475.0 212.0
759 861.0 557.0
760 771.0 588.0
761 483.0 288.0
762 538.0 536.0
763 510.0 305.0
764 486.0 214.0
765 74.0 378.0
766 582.0 114.0
767 635.0 695.0
768 34.0 235.0
769 124.0 175.0
770 66.0 647.0
771 134.0 834.0
772 373.0 152.0
773 758.0 714.0
774 318.0 65.0
775 280.0 35.0
776 345.0 569.0
777 465.0 566.0
778 149.0 331.0
779 440.0 682.0
780 92.0 722.0
781 96.0 541.0
782 629.0 727.0
783 520.0 875.0
784 218.0 749.0
785 690.0 598.0
786 220.0 439.0
787 479.0 444.0
788 547.0 744.0
789 204.0 873.0
790 174.0 228.0
791 689.0 641.0
792 251.0 595.0
793 750.0 666.0
794 893.0 525.0
795 272.0 751.0
796 378.0 95.0
797 22.0 528.0
798 785.0 146.0
799 478.0 334.0
800 807.0 606.0
801 446.0 660.0
802 712.0 27.0
803 461.0 809.0
804 296.0 330.0
805 310.0 363.0
806 862.0 167.0
807 30.0 718.0
808 763.0 662.0
809 149.0 189.0
810 72.0 223.0
811 129.0 676.0
812 133.0 528.0
813 349.0 138.0
814 231.0 419.0
815 355.0 336.0
816 590.0 356.0
817 767.0 456.0
818 60.0 814.0
819 273.0 350.0
820 769.0 740.0
821 357.0 727.0
822 9.0 650.0
823 866.0 671.0
824 356.0 300.0
825 571.0 652.0
826 617.0 443.0
827 326.0 902.0
828 284.0 84.0
829 442.0 473.0
830 820.0 269.0
831 43.0 249.0
832 436.0 119.0
833 304.0 9.0
834 335.0 22.0
835 700.0 670.0
836 64.0 185.0
837 730.0 440.0
838 422.0 551.0
839 498.0 7.0
840 315.0 755.0
841 375.0 500.0
842 689.0 370.0
843 688.0 807.0
844 910.0 273.0
845 393.0 125.0
846 727.0 691.0
847 627.0 388.0
848 732.0 685.0
849 833.0 48.0
850 44.0 790.0
851 91.0 639.0
852 218.0 487.0
853 881.0 913.0
854 267.0 544.0
855 804.0 501.0
856 493.0 610.0
857 506.0 884.0
858 659.0 609.0
859 507.0 42.0
860 82.0 803.0
861 841.0 725.0
862 385.0 852.0
863 494.0 391.0
864 792.0 640.0
865 377.0 305.0
866 488.0 532.0
867 271.0 506.0
868 900.0 51.0
869 874.0 813.0
870 920.0 173.0
871 299.0 22.0
872 463.0 157.0
873 564.0 344.0
874 190.0 72.0
875 392.0 250.0
876 43.0 662.0
877 375.0 833.0
878 509.0 327.0
879 200.0 540.0
880 271.0 158.0
881 619.0 745.0
882 512.0 898.0
883 124.0 826.0
884 671.0 845.0
885 19.0 790.0
886 887.0 517.0
887 897.0 461.0
888 897.0 655.0
889 424.0 866.0
890 448.0 21.0
891 527.0 876.0
892 810.0 819.0
893 852.0 765.0
894 798.0 427.0
895 749.0 373.0
896 693.0 318.0
897 276.0 635.0
898 513.0 309.0
899 873.0 43.0
900 28.0 86.0
901 809.0 368.0
902 146.0 481.0
903 646.0 312.0
904 300.0 795.0
905 77.0 571.0
906 17.0 767.0
907 468.0 746.0
908 2.0 911.0
909 424.0 431.0
910 420.0 192.0
911 772.0 706.0
912 510.0 543.0
913 750.0 419.0
914 823.0 703.0
915 39.0 531.0
916 388.0 2.0
917 73.0 862.0
918 799.0 767.0
919 802.0 260.0
920 362.0 354.0
EOF





